9689.0
0 1 0 1 0 1 0 1 0 1 0 0 1 1 0 1 0 0 1 0 
5 5 5 5 5 5 5 5 7 7 7 7 7 7 7 7 7 12 13 13 12 13 12 13 12 15 15 9 9 9 9 9 9 9 18 18 18 18 18 18 18 18 18 18 5 5 7 12 12 15 15 3 7 18 5 15 3 3 1 6 18 9 15 13 3 13 9 18 6 5 17 18 7 3 3 15 3 6 6 15 18 3 3 15 15 3 1 6 15 3 15 15 17 17 15 17 1 6 1 5 